192
0 163 168 148 154 18 45 136 102 180 
98 91 169 26 99 84 6 146 162 166 
54 65 51 150 184 58 69 176 71 50 
61 109 80 141 38 175 156 79 19 14 
70 171 124 155 96 66 17 77 133 108 
22 117 39 37 152 189 186 126 86 72 
85 30 105 53 44 23 29 173 161 122 
34 13 107 1 82 42 8 78 76 143 
123 187 74 179 140 127 144 129 11 21 
63 149 160 128 137 20 60 164 35 191 
75 88 121 138 47 68 2 59 157 116 
167 178 5 131 119 130 103 43 90 142 
24 111 165 134 92 57 83 3 153 145 
55 87 115 28 89 36 188 147 135 112 
170 56 46 159 10 110 181 104 15 183 
151 67 100 25 94 16 172 12 62 33 
101 125 190 31 41 52 177 81 4 73 
7 174 139 118 113 114 40 158 48 27 
64 49 132 182 106 93 95 32 97 185 
120 9 
